w = 18;
n = 16;
measures = [|3, 3,
|3, 4,
|3, 5,
|3, 6,
|3, 7,
|3, 8,
|3, 10,
|3, 11,
|4, 3,
|4, 4,
|4, 5,
|4, 6,
|5, 3,
|5, 4,
|5, 5,
|5, 6,
|];
initial_x = [0, 3, 6, 9, 12, 15, 0, 3, 6, 10, 14, 0, 4, 9, 0, 5];
initial_y = [0, 0, 0, 0, 0, 0, 8, 8, 8, 8, 8, 19, 19, 19, 25, 25];